Route #1: 81 61 68
Route #2: 95 67 94 90
Route #3: 69 98 88 53 78 60
Route #4: 82 52 99 57 86 77 25 48
Route #5: 72 71 38 37 35 43
Route #6: 2 45 5 8 7 46 3 1 4 100 70
Route #7: 14 47 15 16 11 9 10 13 17
Route #8: 42 39 36 40 44 41 54 96
Route #9: 64 22 19 49 20 24 91 80
Route #10: 31 29 27 30 50
Route #11: 59 75 87 97 58 74
Route #12: 12 73 79 6 55
Route #13: 65 83 23 21 18 89
Route #14: 92 62 33 28 26 32 34 93
Route #15: 63 76 51 85 84 56 66
Cost 305265.86